100
120
84
83
83
83
82
80
80
79
78
78
77
76
75
73
72
72
71
71
70
70
67
67
67
66
65
64
64
64
63
63
61
59
58
58
57
57
56
56
55
55
54
54
51
51
51
50
50
47
46
46
44
44
43
43
42
42
41
41
40
40
38
37
37
37
37
36
36
35
35
35
34
34
33
32
31
31
31
30
29
28
27
27
26
24
24
22
21
19
19
18
17
17
17
16
16
16
15
15
13
12
